0.0 0
0 20 30 32 70 122 128 131 160 188 0
0 7 31 52 88 106 127 153 167 182 190 194 0
0 3 12 24 29 68 76 77 79 80 109 116 121 129 134 150 158 163 169 177 184 185 196 0
0 19 36 46 47 48 49 82 123 124 143 168 0
0 2 15 57 115 137 144 145 178 0
0 26 28 40 53 58 105 138 152 154 180 0
0 5 8 17 18 45 60 83 84 114 118 125 166 173 174 199 0
0 9 33 34 35 51 65 66 71 78 81 103 120 135 136 161 164 0
0 37 42 43 87 92 97 98 142 151 172 0
0 4 25 54 55 110 130 149 155 165 170 179 195 0
0 1 50 69 101 102 111 132 157 162 176 0
0 27 89 112 146 156 0
0 21 22 23 39 41 56 67 72 73 74 75 133 139 171 186 187 197 198 0
0 10 11 62 63 64 90 107 108 126 148 159 175 181 189 0
0 6 13 59 93 94 95 96 99 104 117 147 183 0
0 14 16 38 44 61 85 86 91 100 113 119 140 141 191 192 193 0
